/*********************************************
 * OPL 12.6.0.0 Data
 * Author: QZ61P8
 * Creation Date: 10.07.2014 at 08:59:12
 *********************************************/


nNetworks = 4;
nTime = 50;
nInterfaceTypes = 2;
nFlows = [nRequests];

//channel model: generated Wed May 25 16:37:17 CEST 2016
availChunkBuckets = //[Networks, Time]  
[
	[53, 53, 53, 53, 53, 53, 53, 53, 53, 53, 53, 53, 53, 53, 53, 53, 53, 53, 53, 53, 53, 53, 53, 53, 53, 53, 53, 53, 53, 53, 53, 53, 53, 53, 53, 53, 53, 53, 53, 53, 53, 53, 53, 53, 53, 53, 53, 53, 53, 53],
	[0, 0, 0, 0, 0, 0, 0, 0, 0, 0, 0, 0, 0, 0, 0, 0, 0, 0, 0, 0, 0, 0, 0, 75, 75, 0, 0, 0, 0, 0, 0, 0, 0, 0, 0, 0, 0, 0, 0, 0, 0, 0, 0, 0, 0, 0, 0, 0, 0, 0],
	[0, 0, 0, 0, 0, 0, 0, 0, 0, 0, 0, 0, 0, 0, 0, 0, 0, 0, 0, 0, 0, 0, 0, 0, 0, 0, 0, 0, 0, 0, 0, 0, 0, 0, 0, 0, 0, 0, 0, 31, 31, 0, 0, 0, 0, 0, 0, 0, 0, 0],
	[0, 0, 0, 0, 0, 0, 0, 0, 0, 0, 0, 0, 0, 0, 0, 0, 0, 0, 0, 0, 0, 0, 0, 0, 0, 0, 0, 0, 0, 0, 0, 29, 58, 87, 87, 87, 87, 87, 87, 58, 29, 0, 0, 0, 0, 0, 0, 0, 0, 0]
];
	
network_cost = //[Networks] 
	[20, 3, 3, 1];				//static cost per channel (change later to more realistic model)
network_lcy =
	[9, 1, 1, 1];
network_jit =
	[5, 8, 5, 7];	

network_type= //[Networks] 				//each channel has a specific type; e.g. WiFi, LTE..
	[2, 1, 1, 1];		
nClientInterfaces = //[InterfaceTypes]
	[1, 1];	

//requests: generated [trafficGenTime]
nChunks = 				[[chunks]];		//[Flows]		
deadline= 				[[deadline]];		//[Flows] 
prefStartTime = 		[[startTime]];		//[Flows]
tpMaxWindow = 			[[windowMax]];		//[Flows]	//0 says not relevant/no maximum transfer rate; upper throughput limit
tpMaxChunks = 			[[throughputMax]]; 		//maximum of chunks in above specified time frame
tpMinWindow = 			[[windowMin]];		//[Flows]  //1000 says not relevant / no minimum transfer rate
tpMinChunks = 			[[throughputMin]]; 		//minimum of chunks in above specified time frame; lower throughput limit
latency = 				[[reqLatency]];	
jitter = 				[[reqJitter]];

hysteresis = 500;
importance = [
	[[impDeadline]],	//deadline
	[[impStartTime]],	//start time
	[[impThroughputMax]],	//throughput upper bound
	[[impThroughputMin]],	//throughput lower bound
	[[impUnscheduled]],	//unsched
	[[impLatency]],	//latency
	[[impJitter]]	//jitter
]; //[ImportanceTypes, Flows]

//user profiles
userImportance = [[impUser]]; //[Flows]
costImp = 15; //former willingness to pay is now inversely proportional value: cost importance 
 
